20
120.0 310.0 
120.0 310.0 
120.0 310.0 
120.0 310.0 
120.0 310.0 
120.0 310.0 
120.0 310.0 
120.0 310.0 
120.0 310.0 
120.0 310.0 
120.0 310.0 
120.0 310.0 
120.0 310.0 
120.0 310.0 
120.0 310.0 
120.0 310.0 
120.0 310.0 
120.0 310.0 
120.0 310.0 
120.0 310.0 

0 11 6 5 4 9 10 12 13 20 
0 11 6 5 4 9 10 12 13 20 
0 11 6 5 4 9 10 12 13 20 
0 11 6 5 4 9 10 12 13 20 
0 11 6 5 4 9 10 12 13 20 
0 11 6 5 4 9 10 12 13 20 
0 11 6 5 4 9 10 12 13 20 
0 11 6 5 4 9 10 12 13 20 
0 11 6 5 4 9 10 12 13 20 
0 11 6 5 4 9 10 12 13 20 
0 11 6 5 4 9 10 12 13 20 
0 11 6 5 4 9 10 12 13 20 
0 11 6 5 4 9 10 12 13 20 
0 11 6 5 4 9 10 12 13 20 
0 11 6 5 4 9 10 12 13 20 
0 11 6 5 4 9 10 12 13 20 
0 11 6 5 4 9 10 12 13 20 
0 11 6 5 4 9 10 12 13 20 
0 11 6 5 4 9 10 12 13 20 
0 11 6 5 4 9 10 12 13 20 
